Version identifier: 22.1.1.0 | 2022-11-28 | 9160aff4d
CPXPARAM_ClockType                               1
CPXPARAM_Read_DataCheck                          1
CPXPARAM_Threads                                 1
CPXPARAM_TimeLimit                               7200
CPXPARAM_MIP_Tolerances_AbsMIPGap                0
CPXPARAM_MIP_Tolerances_MIPGap                   0
CPXPARAM_MIP_Tolerances_Integrality              0
Tried aggregator 2 times.
MIP Presolve eliminated 467 rows and 1 columns.
MIP Presolve modified 762 coefficients.
Aggregator did 300 substitutions.
Reduced MIP has 1522 rows, 899 columns, and 4496 nonzeros.
Reduced MIP has 899 binaries, 0 generals, 0 SOSs, and 0 indicators.
Presolve time = 0.01 sec. (6.06 ticks)
Found incumbent of value 66.000000 after 0.02 sec. (12.37 ticks)
Probing time = 0.01 sec. (1.82 ticks)
Tried aggregator 1 time.
Detecting symmetries...
MIP Presolve eliminated 102 rows and 4 columns.
MIP Presolve modified 2 coefficients.
Reduced MIP has 1420 rows, 895 columns, and 4186 nonzeros.
Reduced MIP has 895 binaries, 0 generals, 0 SOSs, and 0 indicators.
Presolve time = 0.00 sec. (4.73 ticks)
Probing time = 0.00 sec. (1.66 ticks)
Clique table members: 2957.
MIP emphasis: balance optimality and feasibility.
MIP search method: dynamic search.
Parallel mode: none, using 1 thread.
Root relaxation solution time = 0.03 sec. (21.31 ticks)

        Nodes                                         Cuts/
   Node  Left     Objective  IInf  Best Integer    Best Bound    ItCnt     Gap

*     0+    0                           66.0000      150.0000           127.27%
      0     0      100.0000   300       66.0000      100.0000      595   51.52%
      0     0      100.0000   375       66.0000      Cuts: 84      667   51.52%
      0     0      100.0000   266       66.0000   ZeroHalf: 2      677   51.52%
      0     0      100.0000   316       66.0000  ZeroHalf: 89      742   51.52%
*     0+    0                           68.0000      100.0000            47.06%
      0     0        cutoff             68.0000      100.0000      742   47.06%
Detecting symmetries...
      0     2      100.0000   316       68.0000      100.0000      742   47.06%
Elapsed time = 0.29 sec. (186.49 ticks, tree = 0.01 MB, solutions = 2)
*    30+   15                           82.0000      100.0000            21.95%
*    42     0      integral     0      100.0000      100.0000     4887    0.00%

Zero-half cuts applied:  15

Root node processing (before b&c):
  Real time             =    0.29 sec. (186.47 ticks)
Sequential b&c:
  Real time             =    0.22 sec. (195.93 ticks)
                          ------------
Total (root+branch&cut) =    0.51 sec. (382.40 ticks)
Solution is feasible.

---------------------
@@@ MIP_optimal
>>> Benchmark flat50-4.cnf k 2 OPT 100 TimeCost 0.637169599533081 TimeSolve 0.5271484851837158 TimeRead 0.0023937225341796875 TimeTrans 0.10762739181518555
